Route 1: 0 9 2 50 13 68 100 15 54 63 89 0
Route 2: 0 1 28 80 61 33 24 29 64 0
Route 3: 0 21 22 96 19 5 30 44 27 3 0
Route 4: 0 79 8 94 18 78 99 0
Route 5: 0 67 51 37 4 98 41 26 87 58 0
Route 6: 0 10 39 86 72 7 52 43 17 83 59 0
Route 7: 0 48 47 92 65 32 70 85 12 0
Route 8: 0 82 46 90 71 95 88 36 0
Route 9: 0 55 76 74 20 69 25 49 38 0
Route 10: 0 91 53 6 14 56 66 0
Route 11: 0 77 84 11 57 35 60 0
Route 12: 0 23 45 62 75 93 40 0
Route 13: 0 81 16 97 34 73 42 31 0
